general comment
1.0
25.865840000	0.000000000	0.000000000
0.000000000	25.865840000	0.000000000
0.000000000	0.000000000	25.865840000
H C O Zn 
96 192 104 32 
Direct
0.308690000	0.451190000	0.191310000
0.691310000	0.548810000	0.808690000
0.691310000	0.548810000	0.191310000
0.308690000	0.451190000	0.808690000
0.691310000	0.451190000	0.808690000
0.308690000	0.548810000	0.191310000
0.308690000	0.548810000	0.808690000
0.691310000	0.451190000	0.191310000
0.191310000	0.308690000	0.451190000
0.808690000	0.691310000	0.548810000
0.191310000	0.691310000	0.548810000
0.808690000	0.308690000	0.451190000
0.808690000	0.691310000	0.451190000
0.191310000	0.308690000	0.548810000
0.808690000	0.308690000	0.548810000
0.191310000	0.691310000	0.451190000
0.451190000	0.191310000	0.308690000
0.548810000	0.808690000	0.691310000
0.548810000	0.191310000	0.691310000
0.451190000	0.808690000	0.308690000
0.451190000	0.808690000	0.691310000
0.548810000	0.191310000	0.308690000
0.548810000	0.808690000	0.308690000
0.451190000	0.191310000	0.691310000
0.451190000	0.308690000	0.808690000
0.548810000	0.691310000	0.191310000
0.548810000	0.691310000	0.808690000
0.451190000	0.308690000	0.191310000
0.451190000	0.691310000	0.191310000
0.548810000	0.308690000	0.808690000
0.548810000	0.308690000	0.191310000
0.451190000	0.691310000	0.808690000
0.308690000	0.191310000	0.548810000
0.691310000	0.808690000	0.451190000
0.691310000	0.191310000	0.451190000
0.308690000	0.808690000	0.548810000
0.691310000	0.808690000	0.548810000
0.308690000	0.191310000	0.451190000
0.308690000	0.808690000	0.451190000
0.691310000	0.191310000	0.548810000
0.191310000	0.451190000	0.691310000
0.808690000	0.548810000	0.308690000
0.191310000	0.548810000	0.308690000
0.808690000	0.451190000	0.691310000
0.808690000	0.451190000	0.308690000
0.191310000	0.548810000	0.691310000
0.808690000	0.548810000	0.691310000
0.191310000	0.451190000	0.308690000
0.308690000	0.951190000	0.691310000
0.691310000	0.048810000	0.308690000
0.691310000	0.048810000	0.691310000
0.308690000	0.951190000	0.308690000
0.691310000	0.951190000	0.308690000
0.308690000	0.048810000	0.691310000
0.308690000	0.048810000	0.308690000
0.691310000	0.951190000	0.691310000
0.191310000	0.808690000	0.951190000
0.808690000	0.191310000	0.048810000
0.191310000	0.191310000	0.048810000
0.808690000	0.808690000	0.951190000
0.808690000	0.191310000	0.951190000
0.191310000	0.808690000	0.048810000
0.808690000	0.808690000	0.048810000
0.191310000	0.191310000	0.951190000
0.308690000	0.691310000	0.048810000
0.691310000	0.308690000	0.951190000
0.691310000	0.691310000	0.951190000
0.308690000	0.308690000	0.048810000
0.691310000	0.308690000	0.048810000
0.308690000	0.691310000	0.951190000
0.308690000	0.308690000	0.951190000
0.691310000	0.691310000	0.048810000
0.191310000	0.951190000	0.191310000
0.808690000	0.048810000	0.808690000
0.191310000	0.048810000	0.808690000
0.808690000	0.951190000	0.191310000
0.808690000	0.951190000	0.808690000
0.191310000	0.048810000	0.191310000
0.808690000	0.048810000	0.191310000
0.191310000	0.951190000	0.808690000
0.951190000	0.191310000	0.808690000
0.048810000	0.808690000	0.191310000
0.048810000	0.191310000	0.191310000
0.951190000	0.808690000	0.808690000
0.951190000	0.808690000	0.191310000
0.048810000	0.191310000	0.808690000
0.048810000	0.808690000	0.808690000
0.951190000	0.191310000	0.191310000
0.951190000	0.308690000	0.308690000
0.048810000	0.691310000	0.691310000
0.048810000	0.691310000	0.308690000
0.951190000	0.308690000	0.691310000
0.951190000	0.691310000	0.691310000
0.048810000	0.308690000	0.308690000
0.048810000	0.308690000	0.691310000
0.951190000	0.691310000	0.308690000
0.250000000	0.388617000	0.250000000
0.750000000	0.611383000	0.750000000
0.750000000	0.611383000	0.250000000
0.250000000	0.388617000	0.750000000
0.750000000	0.388617000	0.750000000
0.250000000	0.611383000	0.250000000
0.250000000	0.611383000	0.750000000
0.750000000	0.388617000	0.250000000
0.250000000	0.250000000	0.388617000
0.750000000	0.750000000	0.611383000
0.250000000	0.750000000	0.611383000
0.750000000	0.250000000	0.388617000
0.750000000	0.750000000	0.388617000
0.250000000	0.250000000	0.611383000
0.750000000	0.250000000	0.611383000
0.250000000	0.750000000	0.388617000
0.388617000	0.250000000	0.250000000
0.611383000	0.750000000	0.750000000
0.611383000	0.250000000	0.750000000
0.388617000	0.750000000	0.250000000
0.388617000	0.750000000	0.750000000
0.611383000	0.250000000	0.250000000
0.611383000	0.750000000	0.250000000
0.388617000	0.250000000	0.750000000
0.250000000	0.888617000	0.750000000
0.750000000	0.111383000	0.250000000
0.750000000	0.111383000	0.750000000
0.250000000	0.888617000	0.250000000
0.750000000	0.888617000	0.250000000
0.250000000	0.111383000	0.750000000
0.250000000	0.111383000	0.250000000
0.750000000	0.888617000	0.750000000
0.250000000	0.750000000	0.888617000
0.750000000	0.250000000	0.111383000
0.250000000	0.250000000	0.111383000
0.750000000	0.750000000	0.888617000
0.750000000	0.250000000	0.888617000
0.250000000	0.750000000	0.111383000
0.750000000	0.750000000	0.111383000
0.250000000	0.250000000	0.888617000
0.888617000	0.250000000	0.750000000
0.111383000	0.750000000	0.250000000
0.111383000	0.250000000	0.250000000
0.888617000	0.750000000	0.750000000
0.888617000	0.750000000	0.250000000
0.111383000	0.250000000	0.750000000
0.111383000	0.750000000	0.750000000
0.888617000	0.250000000	0.250000000
0.250000000	0.446192000	0.250000000
0.750000000	0.553808000	0.750000000
0.750000000	0.553808000	0.250000000
0.250000000	0.446192000	0.750000000
0.750000000	0.446192000	0.750000000
0.250000000	0.553808000	0.250000000
0.250000000	0.553808000	0.750000000
0.750000000	0.446192000	0.250000000
0.250000000	0.250000000	0.446192000
0.750000000	0.750000000	0.553808000
0.250000000	0.750000000	0.553808000
0.750000000	0.250000000	0.446192000
0.750000000	0.750000000	0.446192000
0.250000000	0.250000000	0.553808000
0.750000000	0.250000000	0.553808000
0.250000000	0.750000000	0.446192000
0.446192000	0.250000000	0.250000000
0.553808000	0.750000000	0.750000000
0.553808000	0.250000000	0.750000000
0.446192000	0.750000000	0.250000000
0.446192000	0.750000000	0.750000000
0.553808000	0.250000000	0.250000000
0.553808000	0.750000000	0.250000000
0.446192000	0.250000000	0.750000000
0.250000000	0.946192000	0.750000000
0.750000000	0.053808000	0.250000000
0.750000000	0.053808000	0.750000000
0.250000000	0.946192000	0.250000000
0.750000000	0.946192000	0.250000000
0.250000000	0.053808000	0.750000000
0.250000000	0.053808000	0.250000000
0.750000000	0.946192000	0.750000000
0.250000000	0.750000000	0.946192000
0.750000000	0.250000000	0.053808000
0.250000000	0.250000000	0.053808000
0.750000000	0.750000000	0.946192000
0.750000000	0.250000000	0.946192000
0.250000000	0.750000000	0.053808000
0.750000000	0.750000000	0.053808000
0.250000000	0.250000000	0.946192000
0.946192000	0.250000000	0.750000000
0.053808000	0.750000000	0.250000000
0.053808000	0.250000000	0.250000000
0.946192000	0.750000000	0.750000000
0.946192000	0.750000000	0.250000000
0.053808000	0.250000000	0.750000000
0.053808000	0.750000000	0.750000000
0.946192000	0.250000000	0.250000000
0.283167000	0.473179000	0.216833000
0.716833000	0.526821000	0.783167000
0.716833000	0.526821000	0.216833000
0.283167000	0.473179000	0.783167000
0.716833000	0.473179000	0.783167000
0.283167000	0.526821000	0.216833000
0.283167000	0.526821000	0.783167000
0.716833000	0.473179000	0.216833000
0.216833000	0.283167000	0.473179000
0.783167000	0.716833000	0.526821000
0.216833000	0.716833000	0.526821000
0.783167000	0.283167000	0.473179000
0.783167000	0.716833000	0.473179000
0.216833000	0.283167000	0.526821000
0.783167000	0.283167000	0.526821000
0.216833000	0.716833000	0.473179000
0.473179000	0.216833000	0.283167000
0.526821000	0.783167000	0.716833000
0.526821000	0.216833000	0.716833000
0.473179000	0.783167000	0.283167000
0.473179000	0.783167000	0.716833000
0.526821000	0.216833000	0.283167000
0.526821000	0.783167000	0.283167000
0.473179000	0.216833000	0.716833000
0.473179000	0.283167000	0.783167000
0.526821000	0.716833000	0.216833000
0.526821000	0.716833000	0.783167000
0.473179000	0.283167000	0.216833000
0.473179000	0.716833000	0.216833000
0.526821000	0.283167000	0.783167000
0.526821000	0.283167000	0.216833000
0.473179000	0.716833000	0.783167000
0.283167000	0.216833000	0.526821000
0.716833000	0.783167000	0.473179000
0.716833000	0.216833000	0.473179000
0.283167000	0.783167000	0.526821000
0.716833000	0.783167000	0.526821000
0.283167000	0.216833000	0.473179000
0.283167000	0.783167000	0.473179000
0.716833000	0.216833000	0.526821000
0.216833000	0.473179000	0.716833000
0.783167000	0.526821000	0.283167000
0.216833000	0.526821000	0.283167000
0.783167000	0.473179000	0.716833000
0.783167000	0.473179000	0.283167000
0.216833000	0.526821000	0.716833000
0.783167000	0.526821000	0.716833000
0.216833000	0.473179000	0.283167000
0.283167000	0.973179000	0.716833000
0.716833000	0.026821000	0.283167000
0.716833000	0.026821000	0.716833000
0.283167000	0.973179000	0.283167000
0.716833000	0.973179000	0.283167000
0.283167000	0.026821000	0.716833000
0.283167000	0.026821000	0.283167000
0.716833000	0.973179000	0.716833000
0.216833000	0.783167000	0.973179000
0.783167000	0.216833000	0.026821000
0.216833000	0.216833000	0.026821000
0.783167000	0.783167000	0.973179000
0.783167000	0.216833000	0.973179000
0.216833000	0.783167000	0.026821000
0.783167000	0.783167000	0.026821000
0.216833000	0.216833000	0.973179000
0.283167000	0.716833000	0.026821000
0.716833000	0.283167000	0.973179000
0.716833000	0.716833000	0.973179000
0.283167000	0.283167000	0.026821000
0.716833000	0.283167000	0.026821000
0.283167000	0.716833000	0.973179000
0.283167000	0.283167000	0.973179000
0.716833000	0.716833000	0.026821000
0.216833000	0.973179000	0.216833000
0.783167000	0.026821000	0.783167000
0.216833000	0.026821000	0.783167000
0.783167000	0.973179000	0.216833000
0.783167000	0.973179000	0.783167000
0.216833000	0.026821000	0.216833000
0.783167000	0.026821000	0.216833000
0.216833000	0.973179000	0.783167000
0.973179000	0.216833000	0.783167000
0.026821000	0.783167000	0.216833000
0.026821000	0.216833000	0.216833000
0.973179000	0.783167000	0.783167000
0.973179000	0.783167000	0.216833000
0.026821000	0.216833000	0.783167000
0.026821000	0.783167000	0.783167000
0.973179000	0.216833000	0.216833000
0.973179000	0.283167000	0.283167000
0.026821000	0.716833000	0.716833000
0.026821000	0.716833000	0.283167000
0.973179000	0.283167000	0.716833000
0.973179000	0.716833000	0.716833000
0.026821000	0.283167000	0.283167000
0.026821000	0.283167000	0.716833000
0.973179000	0.716833000	0.283167000
0.250000000	0.250000000	0.250000000
0.750000000	0.750000000	0.750000000
0.750000000	0.750000000	0.250000000
0.250000000	0.250000000	0.750000000
0.750000000	0.250000000	0.750000000
0.250000000	0.750000000	0.250000000
0.250000000	0.750000000	0.750000000
0.750000000	0.250000000	0.250000000
0.281042000	0.366348000	0.218958000
0.718958000	0.633652000	0.781042000
0.718958000	0.633652000	0.218958000
0.281042000	0.366348000	0.781042000
0.718958000	0.366348000	0.781042000
0.281042000	0.633652000	0.218958000
0.281042000	0.633652000	0.781042000
0.718958000	0.366348000	0.218958000
0.218958000	0.281042000	0.366348000
0.781042000	0.718958000	0.633652000
0.218958000	0.718958000	0.633652000
0.781042000	0.281042000	0.366348000
0.781042000	0.718958000	0.366348000
0.218958000	0.281042000	0.633652000
0.781042000	0.281042000	0.633652000
0.218958000	0.718958000	0.366348000
0.366348000	0.218958000	0.281042000
0.633652000	0.781042000	0.718958000
0.633652000	0.218958000	0.718958000
0.366348000	0.781042000	0.281042000
0.366348000	0.781042000	0.718958000
0.633652000	0.218958000	0.281042000
0.633652000	0.781042000	0.281042000
0.366348000	0.218958000	0.718958000
0.366348000	0.281042000	0.781042000
0.633652000	0.718958000	0.218958000
0.633652000	0.718958000	0.781042000
0.366348000	0.281042000	0.218958000
0.366348000	0.718958000	0.218958000
0.633652000	0.281042000	0.781042000
0.633652000	0.281042000	0.218958000
0.366348000	0.718958000	0.781042000
0.281042000	0.218958000	0.633652000
0.718958000	0.781042000	0.366348000
0.718958000	0.218958000	0.366348000
0.281042000	0.781042000	0.633652000
0.718958000	0.781042000	0.633652000
0.281042000	0.218958000	0.366348000
0.281042000	0.781042000	0.366348000
0.718958000	0.218958000	0.633652000
0.218958000	0.366348000	0.718958000
0.781042000	0.633652000	0.281042000
0.218958000	0.633652000	0.281042000
0.781042000	0.366348000	0.718958000
0.781042000	0.366348000	0.281042000
0.218958000	0.633652000	0.718958000
0.781042000	0.633652000	0.718958000
0.218958000	0.366348000	0.281042000
0.281042000	0.866348000	0.718958000
0.718958000	0.133652000	0.281042000
0.718958000	0.133652000	0.718958000
0.281042000	0.866348000	0.281042000
0.718958000	0.866348000	0.281042000
0.281042000	0.133652000	0.718958000
0.281042000	0.133652000	0.281042000
0.718958000	0.866348000	0.718958000
0.218958000	0.781042000	0.866348000
0.781042000	0.218958000	0.133652000
0.218958000	0.218958000	0.133652000
0.781042000	0.781042000	0.866348000
0.781042000	0.218958000	0.866348000
0.218958000	0.781042000	0.133652000
0.781042000	0.781042000	0.133652000
0.218958000	0.218958000	0.866348000
0.281042000	0.718958000	0.133652000
0.718958000	0.281042000	0.866348000
0.718958000	0.718958000	0.866348000
0.281042000	0.281042000	0.133652000
0.718958000	0.281042000	0.133652000
0.281042000	0.718958000	0.866348000
0.281042000	0.281042000	0.866348000
0.718958000	0.718958000	0.133652000
0.218958000	0.866348000	0.218958000
0.781042000	0.133652000	0.781042000
0.218958000	0.133652000	0.781042000
0.781042000	0.866348000	0.218958000
0.781042000	0.866348000	0.781042000
0.218958000	0.133652000	0.218958000
0.781042000	0.133652000	0.218958000
0.218958000	0.866348000	0.781042000
0.866348000	0.218958000	0.781042000
0.133652000	0.781042000	0.218958000
0.133652000	0.218958000	0.218958000
0.866348000	0.781042000	0.781042000
0.866348000	0.781042000	0.218958000
0.133652000	0.218958000	0.781042000
0.133652000	0.781042000	0.781042000
0.866348000	0.218958000	0.218958000
0.866348000	0.281042000	0.281042000
0.133652000	0.718958000	0.718958000
0.133652000	0.718958000	0.281042000
0.866348000	0.281042000	0.718958000
0.866348000	0.718958000	0.718958000
0.133652000	0.281042000	0.281042000
0.133652000	0.281042000	0.718958000
0.866348000	0.718958000	0.281042000
0.293367000	0.293367000	0.206633000
0.706633000	0.706633000	0.793367000
0.706633000	0.706633000	0.206633000
0.293367000	0.293367000	0.793367000
0.706633000	0.293367000	0.793367000
0.293367000	0.706633000	0.206633000
0.293367000	0.706633000	0.793367000
0.706633000	0.293367000	0.206633000
0.206633000	0.293367000	0.293367000
0.793367000	0.706633000	0.706633000
0.206633000	0.706633000	0.706633000
0.793367000	0.293367000	0.293367000
0.793367000	0.706633000	0.293367000
0.206633000	0.293367000	0.706633000
0.793367000	0.293367000	0.706633000
0.206633000	0.706633000	0.293367000
0.293367000	0.206633000	0.293367000
0.706633000	0.793367000	0.706633000
0.706633000	0.206633000	0.706633000
0.293367000	0.793367000	0.293367000
0.293367000	0.793367000	0.706633000
0.706633000	0.206633000	0.293367000
0.706633000	0.793367000	0.293367000
0.293367000	0.206633000	0.706633000
0.206633000	0.793367000	0.793367000
0.793367000	0.206633000	0.206633000
0.206633000	0.206633000	0.206633000
0.793367000	0.793367000	0.793367000
0.793367000	0.206633000	0.793367000
0.206633000	0.793367000	0.206633000
0.793367000	0.793367000	0.206633000
0.206633000	0.206633000	0.793367000

